
Gurobi 10.0.1 (win64) logging started Sat Sep  9 15:28:37 2023

Set parameter LogFile to value "results-heuristic-start//log/URT_08_deadline.log"
Gurobi Optimizer version 10.0.1 build v10.0.1rc0 (win64)

CPU model: AMD Ryzen 7 3700X 8-Core Processor, instruction set [SSE2|AVX|AVX2]
Thread count: 8 physical cores, 16 logical processors, using up to 16 threads

Optimize a model with 177 rows, 124 columns and 652 nonzeros
Model fingerprint: 0x6ae64536
Model has 1 quadratic constraint
Variable types: 18 continuous, 106 integer (105 binary)
Coefficient statistics:
  Matrix range     [1e+00, 1e+06]
  QMatrix range    [1e+00, 1e+00]
  QLMatrix range   [1e+00, 7e+00]
  Objective range  [1e+00, 1e+00]
  Bounds range     [1e+00, 1e+00]
  RHS range        [1e+00, 3e+06]

User MIP start produced solution with objective 543 (0.02s)
Loaded user MIP start with objective 543

Presolve removed 37 rows and 51 columns
Presolve time: 0.00s
Presolved: 147 rows, 79 columns, 625 nonzeros
Variable types: 24 continuous, 55 integer (54 binary)

Root relaxation: objective 0.000000e+00, 24 iterations, 0.00 seconds (0.00 work units)

    Nodes    |    Current Node    |     Objective Bounds      |     Work
 Expl Unexpl |  Obj  Depth IntInf | Incumbent    BestBd   Gap | It/Node Time

     0     0    0.00000    0    9  543.00000    0.00000   100%     -    0s
H    0     0                      32.0000000    0.00000   100%     -    0s
     0     0    0.00000    0   11   32.00000    0.00000   100%     -    0s
     0     0    0.00000    0   10   32.00000    0.00000   100%     -    0s
     0     0    0.00000    0    1   32.00000    0.00000   100%     -    0s
     0     0    0.00000    0    3   32.00000    0.00000   100%     -    0s
     0     0    6.99976    0    8   32.00000    6.99976  78.1%     -    0s
     0     0    7.00000    0    7   32.00000    7.00000  78.1%     -    0s
H    0     0                      31.0000000    7.00000  77.4%     -    0s
H    0     0                      30.0000000    7.00000  76.7%     -    0s
     0     0    7.00000    0    6   30.00000    7.00000  76.7%     -    0s
     0     0    8.00000    0    7   30.00000    8.00000  73.3%     -    0s
     0     0    8.31119    0    9   30.00000    8.31119  72.3%     -    0s
     0     0    8.31119    0   11   30.00000    8.31119  72.3%     -    0s
     0     0    8.31119    0   12   30.00000    8.31119  72.3%     -    0s
     0     0    8.32730    0   11   30.00000    8.32730  72.2%     -    0s
     0     0    8.50000    0   11   30.00000    8.50000  71.7%     -    0s
     0     0    8.50000    0    7   30.00000    8.50000  71.7%     -    0s
     0     2    8.50000    0    7   30.00000    8.50000  71.7%     -    0s
H   31    19                      27.0000000   11.00000  59.3%  16.3    0s

Cutting planes:
  Learned: 45
  Cover: 8
  Implied bound: 6
  MIR: 14
  Flow cover: 12
  RLT: 7
  Relax-and-lift: 1

Explored 1830 nodes (2002 simplex iterations) in 0.32 seconds (0.05 work units)
Thread count was 16 (of 16 available processors)

Solution count 6: 27 27 30 ... 543

Optimal solution found (tolerance 1.00e-04)
Best objective 2.700000000000e+01, best bound 2.700000000000e+01, gap 0.0000%
Warning: constraint name "precedence between 0,1 to 0,0 if x_[j,l,h,z,i]=1" has a space
Warning: constraint name "precedence between 0,1 to 0,0 if x_[j,l,h,z,i]=1" has a space
Warning: default constraint names used to write mps file
